RT is False
Default write of storage_offers_DA.csv just to have a file (but constraint should be inactive)
Reading model...
...model read.
creating competitive generators file...
...competitive generators recorded.
Loading data...
.. day-ahead data with real-time VRE data read.
Compiling instance...
...instance created.
Creating Offer Mitigation (model will solve as dispatch if TRUE)...
Solving...

Welcome to IBM(R) ILOG(R) CPLEX(R) Interactive Optimizer 12.9.0.0
  with Simplex, Mixed Integer & Barrier Optimizers
5725-A06 5725-A29 5724-Y48 5724-Y49 5724-Y54 5724-Y55 5655-Y21
Copyright IBM Corp. 1988, 2019.  All Rights Reserved.

Type 'help' for a list of available commands.
Type 'help' followed by a command name for more
information on commands.

CPLEX> Logfile 'cplex.log' closed.
Logfile 'C:\Users\Luke\Desktop\test919\logs\tmpr544hvsj.cplex.log' open.
CPLEX> New value for parallel optimization mode: -1
CPLEX> New value for emphasis for MIP optimization: 1
CPLEX> New value for mixed integer optimality gap tolerance: 0.01
CPLEX> New value for integrality tolerance: 1e-12
CPLEX> New value for deterministic time limit in ticks: 75000
CPLEX> Problem 'C:\Users\Luke\Desktop\test919\logs\tmpovyf4la2.pyomo.lp' read.
Read time = 0.05 sec. (3.05 ticks)
CPLEX> Problem name         : C:\Users\Luke\Desktop\test919\logs\tmpovyf4la2.pyomo.lp
Objective sense      : Minimize
Variables            :   26085  [Nneg: 1,  Box: 21620,  Free: 4464]
Objective nonzeros   :    2496
Linear constraints   :   27563  [Less: 14006,  Greater: 4416,  Equal: 9141]
  Nonzeros           :   90683
  RHS nonzeros       :   12271

Variables            : Min LB: -5000.000        Max UB: 1000000.       
Objective nonzeros   : Min   : 15.73158         Max   : 124.0997       
Linear constraints   :
  Nonzeros           : Min   : 0.8500000        Max   : 3000.000       
  RHS nonzeros       : Min   : 0.2250000        Max   : 5000.000       
CPLEX> CPXPARAM_Parallel                                -1
CPXPARAM_Emphasis_MIP                            1
CPXPARAM_DetTimeLimit                            75000
CPXPARAM_MIP_Tolerances_MIPGap                   0.01
CPXPARAM_MIP_Tolerances_Integrality              9.9999999999999998e-13
Parallel mode: opportunistic, using up to 12 threads for concurrent optimization.
Tried aggregator 1 time.
LP Presolve eliminated 21384 rows and 15495 columns.
Aggregator did 757 substitutions.
Reduced LP has 5422 rows, 9833 columns, and 32572 nonzeros.
Presolve time = 0.05 sec. (30.59 ticks)
Symmetry aggregator did 5659 additional substitutions.
Initializing dual steep norms . . .

Iteration log . . .
Iteration:     1   Dual objective     =             0.000000
Perturbation started.
Iteration:   101   Dual objective     =             0.000000
Iteration:   348   Dual objective     =            49.060702
Iteration:   552   Dual objective     =            59.741915
Iteration:   767   Dual objective     =            60.070771
Iteration:   951   Dual objective     =         10586.280216
Iteration:  1122   Dual objective     =         40932.608397
Removing perturbation.

Dual crossover.
  Dual:  Fixed no variables.
  Primal:  Fixed no variables.

Dual simplex solved model.


Dual simplex - Optimal:  Objective =  5.5325939696e+04
Solution time =    0.11 sec.  Iterations = 1374 (0)
Deterministic time = 76.73 ticks  (703.98 ticks/sec)

CPLEX> Solution written to file 'C:\Users\Luke\Desktop\test919\logs\tmpq8n07kjm.cplex.sol'.
CPLEX> Exporting results... 
...storage offer mitigation file created
Converting model to MPEC...
...converted
NOTE: initial MIP solve with only storage competitive to get feasible solution
Solving...

Welcome to IBM(R) ILOG(R) CPLEX(R) Interactive Optimizer 12.9.0.0
  with Simplex, Mixed Integer & Barrier Optimizers
5725-A06 5725-A29 5724-Y48 5724-Y49 5724-Y54 5724-Y55 5655-Y21
Copyright IBM Corp. 1988, 2019.  All Rights Reserved.

Type 'help' for a list of available commands.
Type 'help' followed by a command name for more
information on commands.

CPLEX> Logfile 'cplex.log' closed.
Logfile 'C:\Users\Luke\Desktop\test919\logs\tmpyfjxyzby.cplex.log' open.
CPLEX> New value for parallel optimization mode: -1
CPLEX> New value for emphasis for MIP optimization: 1
CPLEX> New value for mixed integer optimality gap tolerance: 0.01
CPLEX> New value for integrality tolerance: 1e-12
CPLEX> New value for deterministic time limit in ticks: 75000
CPLEX> Problem 'C:\Users\Luke\Desktop\test919\logs\tmpklefl1sd.pyomo.lp' read.
Read time = 0.19 sec. (13.88 ticks)
CPLEX> Problem name         : C:\Users\Luke\Desktop\test919\logs\tmpklefl1sd.pyomo.lp
Objective sense      : Maximize
Variables            :   53809  [Nneg: 1,  Box: 22004,  Free: 4464,
                                 Binary: 27340]
Objective nonzeros   :    9029
Linear constraints   :  123253  [Less: 41346,  Greater: 59096,  Equal: 22811]
  Nonzeros           :  293217
  RHS nonzeros       :   67491

Variables            : Min LB: -5000.000        Max UB: 1000000.       
Objective nonzeros   : Min   : 0.2250000        Max   : 2500.000       
Linear constraints   :
  Nonzeros           : Min   : 0.2250000        Max   : 1000000.       
  RHS nonzeros       : Min   : 0.2250000        Max   : 1000000.       
CPLEX> CPXPARAM_Parallel                                -1
CPXPARAM_Emphasis_MIP                            1
CPXPARAM_DetTimeLimit                            75000
CPXPARAM_MIP_Tolerances_MIPGap                   0.01
CPXPARAM_MIP_Tolerances_Integrality              9.9999999999999998e-13
Tried aggregator 4 times.
MIP Presolve eliminated 88690 rows and 18993 columns.
MIP Presolve added 3373 rows and 0 columns.
MIP Presolve modified 24865 coefficients.
Aggregator did 12987 substitutions.
Reduced MIP has 24949 rows, 21273 columns, and 71768 nonzeros.
Reduced MIP has 8411 binaries, 0 generals, 0 SOSs, and 0 indicators.
Presolve time = 0.25 sec. (192.43 ticks)
Probing fixed 389 vars, tightened 3883 bounds.
Probing time = 0.05 sec. (19.05 ticks)
Tried aggregator 2 times.
MIP Presolve eliminated 882 rows and 786 columns.
MIP Presolve modified 3039 coefficients.
Aggregator did 35 substitutions.
Reduced MIP has 24032 rows, 20452 columns, and 69098 nonzeros.
Reduced MIP has 8019 binaries, 0 generals, 0 SOSs, and 0 indicators.
Presolve time = 0.11 sec. (89.42 ticks)
Probing fixed 5 vars, tightened 233 bounds.
Probing time = 0.13 sec. (24.25 ticks)
Clique table members: 44961.
MIP emphasis: integer feasibility.
MIP search method: dynamic search.
Parallel mode: opportunistic, using up to 12 threads.
Root relaxation solution time = 0.39 sec. (610.37 ticks)

        Nodes                                         Cuts/
   Node  Left     Objective  IInf  Best Integer    Best Bound    ItCnt     Gap

      0     0     3150.9814   124                   3150.9814     5320         
      0     0     3150.9814     2                     Cuts: 3     5322         
*     0+    0                         2399.3487     3150.9814            31.33%
      0     0     3150.9814     3     2399.3487      Fract: 1     5324   31.33%
      0     0     3150.9814     4     2399.3487      Cuts: 11     5326   31.33%
      0     2     3150.9814     4     2399.3487     3150.9814     5326   31.33%
Elapsed time = 4.17 sec. (2227.75 ticks, tree = 0.02 MB, solutions = 3)
*     2+    3                         3147.5714     3150.9814             0.11%
*     3     3      integral     0     3147.5714     3150.9814     5336    0.11%

Flow cuts applied:  1
Mixed integer rounding cuts applied:  5
Gomory fractional cuts applied:  2

Root node processing (before b&c):
  Real time             =    3.77 sec. (2183.70 ticks)
Parallel b&c, 12 threads:
  Real time             =    0.47 sec. (157.12 ticks)
  Sync time (average)   =    0.10 sec.
  Wait time (average)   =    0.00 sec.
                          ------------
Total (root+branch&cut) =    4.24 sec. (2340.83 ticks)

Solution pool: 3 solutions saved.

MIP - Integer optimal, tolerance (0.01/1e-06):  Objective =  3.1475714012e+03
Current MIP best bound =  3.1509813631e+03 (gap = 3.40996, 0.11%)
Solution time =    4.24 sec.  Iterations = 5347  Nodes = 6 (1)
Deterministic time = 2340.98 ticks  (552.77 ticks/sec)

CPLEX> Incumbent solution written to file 'C:\Users\Luke\Desktop\test919\logs\tmpoysdxmtk.cplex.sol'.
CPLEX> NOTE: no warmstart specified for MIP iteration, default behavior is true
NOTE: resolving with all competitive generators using storage-only solution to warmstart
Solving...

Welcome to IBM(R) ILOG(R) CPLEX(R) Interactive Optimizer 12.9.0.0
  with Simplex, Mixed Integer & Barrier Optimizers
5725-A06 5725-A29 5724-Y48 5724-Y49 5724-Y54 5724-Y55 5655-Y21
Copyright IBM Corp. 1988, 2019.  All Rights Reserved.

Type 'help' for a list of available commands.
Type 'help' followed by a command name for more
information on commands.

CPLEX> Logfile 'cplex.log' closed.
Logfile 'C:\Users\Luke\Desktop\test919\logs\tmp97853pgd.cplex.log' open.
CPLEX> New value for parallel optimization mode: -1
CPLEX> New value for emphasis for MIP optimization: 1
CPLEX> New value for mixed integer optimality gap tolerance: 0.01
CPLEX> New value for integrality tolerance: 1e-12
CPLEX> New value for deterministic time limit in ticks: 75000
CPLEX> Problem 'C:\Users\Luke\Desktop\test919\logs\tmpdi28rxw6.pyomo.lp' read.
Read time = 0.20 sec. (13.91 ticks)
CPLEX> MIP start file 'C:\Users\Luke\Desktop\test919\logs\tmppe__gz0a.cplex.mst' read.
CPLEX> Problem name         : C:\Users\Luke\Desktop\test919\logs\tmpdi28rxw6.pyomo.lp
Objective sense      : Maximize
Variables            :   54529  [Nneg: 1,  Box: 22724,  Free: 4464,
                                 Binary: 27340]
Objective nonzeros   :    9725
Linear constraints   :  123253  [Less: 41346,  Greater: 59096,  Equal: 22811]
  Nonzeros           :  293217
  RHS nonzeros       :   67491

Variables            : Min LB: -5000.000        Max UB: 1000000.       
Objective nonzeros   : Min   : 0.2250000        Max   : 2500.000       
Linear constraints   :
  Nonzeros           : Min   : 0.2250000        Max   : 1000000.       
  RHS nonzeros       : Min   : 0.2250000        Max   : 1000000.       
CPLEX> CPXPARAM_Parallel                                -1
CPXPARAM_Emphasis_MIP                            1
CPXPARAM_DetTimeLimit                            75000
CPXPARAM_MIP_Tolerances_MIPGap                   0.01
CPXPARAM_MIP_Tolerances_Integrality              9.9999999999999998e-13
Warning:  No solution found from 1 MIP starts.
Retaining values of one MIP start for possible repair.
Tried aggregator 4 times.
MIP Presolve eliminated 88690 rows and 19713 columns.
MIP Presolve added 3373 rows and 0 columns.
MIP Presolve modified 24865 coefficients.
Aggregator did 12987 substitutions.
Reduced MIP has 24949 rows, 21273 columns, and 71768 nonzeros.
Reduced MIP has 8411 binaries, 0 generals, 0 SOSs, and 0 indicators.
Presolve time = 0.28 sec. (192.84 ticks)
Probing fixed 389 vars, tightened 3883 bounds.
Probing time = 0.05 sec. (19.05 ticks)
Tried aggregator 2 times.
MIP Presolve eliminated 882 rows and 786 columns.
MIP Presolve modified 3039 coefficients.
Aggregator did 35 substitutions.
Reduced MIP has 24032 rows, 20452 columns, and 69098 nonzeros.
Reduced MIP has 8019 binaries, 0 generals, 0 SOSs, and 0 indicators.
Presolve time = 0.11 sec. (89.43 ticks)
Probing fixed 5 vars, tightened 233 bounds.
Probing time = 0.11 sec. (24.25 ticks)
Clique table members: 44961.
MIP emphasis: integer feasibility.
MIP search method: dynamic search.
Parallel mode: opportunistic, using up to 12 threads.
Root relaxation solution time = 0.48 sec. (695.97 ticks)

        Nodes                                         Cuts/
   Node  Left     Objective  IInf  Best Integer    Best Bound    ItCnt     Gap

      0     0   125538.4700   335                 125538.4700     6196         
      0     0   121734.6550   319                   Cuts: 333     6442         
      0     0   120958.8013   257                   Cuts: 139     6543         
      0     0   120738.8858   239                    Cuts: 50     6592         
Repair heuristic found nothing.
      0    12   118982.6714   214                    Cuts: 14     6764         
Elapsed time = 3.69 sec. (1990.37 ticks, tree = 0.02 MB, solutions = 0)
    202   131   116851.9322   199                 119613.4966     8313         
    400   262    infeasible                       119613.4966     9509         
    581   445   105585.2025   169                 119613.4966    13070         
    709   588    75157.5713   158                 119613.4966    19116         
    922   702    53435.8157   129                 119613.4966    21813         
   1140   945    19534.2962   120                 119613.4966    25890         
   1355   979    72300.6314   177                 119613.4966    26926         
   1571  1103    55729.5480   134                 119613.4966    29537         
   1774  1180    45351.3978    78                 119613.4966    31046         
   2710  1884    45608.5288    86                 119613.4966    47027         
Elapsed time = 16.91 sec. (5099.44 ticks, tree = 13.80 MB, solutions = 0)
   3583  2568    35508.2544    45                 119613.4966    60042         
   4501  3481    44252.5623   100                 119613.4966    80034         
   5349  3955    76175.3030   149                 119613.4966    92740         
   6109  4376   -26464.3797   120                 119613.4966   101862         
   6772  4966    82088.6497   188                 119613.4966   118386         
   7170  5362    68741.9460   118                 119613.4966   135162         
   7765  5784    infeasible                       119556.8716   156999         
   8563  6169    23500.3136   158                 119556.8716   169434         
   9290  7151  -125434.2355    44                 119556.8716   199561         
  10099  7350    78837.8358   141                 119310.6605   206818         
Elapsed time = 55.72 sec. (14644.39 ticks, tree = 109.14 MB, solutions = 0)
  10813  8400    31658.0287    78                 118449.9885   245355         
  11582  8276    66366.8228   155                 118449.9885   241510         
  12054  8834     -655.7867   167                 118449.9885   261349         
  12068  9395    80062.2318   120                  83660.5283   288054         
  12719   456    76878.2989    90                  83660.5283   299613         
  13627  1145    51682.1206    31                  83660.5283   319707         
  14629  1682    41110.5505    33                  83660.5283   339643         
  15620  2271    40909.3853    30                  83660.5283   357894         
  16494  2705    70501.5780    75                  83660.5283   367778         
  17314  3697    23898.0652    56                  83660.5283   396037         
Elapsed time = 93.84 sec. (25985.13 ticks, tree = 46.71 MB, solutions = 0)
  18231  4013    76966.0517    81                  83660.5283   406408         
  19237  5032   -81649.4248    32                  83660.5283   443396         
  20147  5338    36865.2194    29                  83660.5283   451699         
  21027  6402    34729.7689    46                  83660.5283   482992         
  21978  6663    30997.1641    14                  83660.5283   489265         
  22859  7399    33786.3688    17                  83660.5283   509937         
  23846  7767  -148146.8333    22                  83660.5283   520594         
  24554  8794    37261.9529    22                  83531.9020   554618         
  25206  8837    42870.6006    44                  83531.9020   556047         
  25947  9703   -17363.4457    80                  83531.9020   585529         
Elapsed time = 145.56 sec. (35532.17 ticks, tree = 90.82 MB, solutions = 0)
  26843  9571    32121.1602     7                  83531.9020   579074         
  27732 10097    63995.6549    61                  83531.9020   597214         
  28664 11831    17300.7533    24                  83531.9020   657694         
  29568 12157    34788.7223    12                  83531.9020   668276         
  30447 11968    34730.6684    10                  83531.9020   661030         
  31342 12368    28692.3294    28                  83531.9020   676425         
  32156 13787    45095.4052    57                  83531.9020   719235         
  32983 13324    infeasible                        83531.9020   707137         
  33810 15260    23997.0907    24                  83531.9020   763765         
  34623 15347    -1887.9118    73                  83531.9020   765654         
Elapsed time = 201.66 sec. (45081.39 ticks, tree = 138.39 MB, solutions = 0)
  35484 14485    infeasible                        83531.9020   739718         
  36351 16519    infeasible                        83531.9020   808239         
  37222 15519    33233.3086     8                  83531.9020   773741         
  37986 17072  -191357.3536    64                  83531.9020   825819         
  38767 16478    infeasible                        83531.9020   807955         
  39527 17623    32077.2079    14                  83531.9020   842387         
  40290 16670    42889.9304    35                  83531.9020   813090         
  40932 17636    infeasible                        83531.9020   842112         
  41565 19320    46006.7410    57                  83531.9020   903019         
  42151 18455    infeasible                        83531.9020   869172         
Elapsed time = 222.30 sec. (54623.55 ticks, tree = 170.93 MB, solutions = 0)
  42770 17992    infeasible                        83531.9020   855453         
  43425 20400    47409.6502    44                  83531.9020   942480         
  44102 19020    34599.8872    52                  83531.9020   890027         
  44757 20123    30958.3607     9                  83531.9020   935659         
  45343 20515    55475.5081    94                  83531.9020   947261         
  45964 21844    43344.2886    60                  83531.9020  1002993         
  46567 21901    26853.1643    18                  83531.9020  1005045         
  47176 20706    40447.3307    37                  83531.9020   954510         
  47818 21041    41323.9829    35                  83531.9020   969131         
  48457 22352   -45845.8790    37                  83531.9020  1024040         
Elapsed time = 223.59 sec. (64170.80 ticks, tree = 233.81 MB, solutions = 0)
  49038 20786    21334.3852    44                  83531.9020   962369         
  49484 21774    -3442.0747    87                  83531.9020  1001388         
  49851 21101    infeasible                        83531.9020   967316         
  50200 21861    infeasible                        83531.9020  1006452         
  50539 21347   -87384.4617    65                  83531.9020   979159         
  50814 22227    48709.7621    50                  83531.9020  1021828         
  51096 22200    infeasible                        83531.9020  1017449         
  51185 22743    11500.7964    78                  83531.9020  1041149         
  51263 22780  -118947.4033    51                  83531.9020  1042588         
  51361 22824    64262.0198   102                  83531.9020  1044707         
Elapsed time = 232.34 sec. (73742.88 ticks, tree = 237.11 MB, solutions = 0)
  51417 21755    32796.2984     4                  83531.9020   999557         

Cover cuts applied:  12
Implied bound cuts applied:  5
Flow cuts applied:  270
Mixed integer rounding cuts applied:  17
Lift and project cuts applied:  12
Gomory fractional cuts applied:  22

Root node processing (before b&c):
  Real time             =    3.11 sec. (1936.40 ticks)
Parallel b&c, 12 threads:
  Real time             =  229.84 sec. (73090.41 ticks)
  Sync time (average)   =    0.42 sec.
  Wait time (average)   =    0.02 sec.
                          ------------
Total (root+branch&cut) =  232.95 sec. (75026.81 ticks)


MIP - Deterministic time limit exceeded, no integer solution.
Current MIP best bound =  8.3531901968e+04 (gap is infinite)
Solution time =  232.95 sec.  Iterations = 1179951  Nodes = 51420 (25875)
Deterministic time = 75026.96 ticks  (322.07 ticks/sec)

CPLEX> CPLEX Error  1217: No solution exists.
No file written.
CPLEX> gap is infinite, so writing 0
Exporting results... 
